benchmarks_vrp/CMT4/no_cluster/CMT4_9.vrp
NAME: CMT4_9
TYPE: CVRP
COMMENT: 1028.42 - Cluster Nr.9
DIMENSION: 14
CAPACITY: 200
EDGE_WEIGHT_TYPE: EUC_2D
NODE_COORD_TYPE: TWOD_COORDS
NODE_COORD_SECTION: 
11 65 35
8 57 29
13 60 12
14 61 33
2 35 35
3 65 20
6 58 27
4 62 42
5 64 42
9 58 48
10 56 39
12 63 23
7 53 43
1 55 45
DEPOT_SECTION: 
2
-1
DEMAND_SECTION: 
14 26
12 2
7 14
13 31
10 36
1 13
2 0
11 3
5 9
6 19
9 6
8 18
4 8
3 6
EOF
