benchmarks_vrp/CMT4/no_cluster/CMT4_9.tour
NAME: CMT4_9 solution
TYPE: TOUR
TOUR_SECTION:
2 10 7 1 9 4 5 11 14 8 6 12 3 13 -1
-1
EOF